  C H N Au                              
   1.00000000000000     
    11.8340302229290000    0.0000000000000000    0.0000000000000000
     0.0000000000000000   10.2485702615829997    0.0000000000000000
     0.0000000000000000    0.0000000000000000   56.909279
   C   H   N  Au
   6   8   2  64
Cartesian
2.268604 3.933270 40.409309
3.663049 3.933270 40.409309
4.388901 5.134896 40.409309
3.663074 6.336729 40.395206
2.268598 6.337235 40.394806
1.542438 5.135604 40.407509
1.727552 2.984676 40.399509
4.202718 2.983498 40.397308
4.203230 7.285627 40.370506
1.728427 7.286549 40.371807
6.230922 5.973100 40.714809
6.232720 4.299596 40.714306
-0.305385 5.974525 40.692307
-0.305797 4.296527 40.695709
0.139585 5.134593 40.332207
5.794762 5.135420 40.336609
0.000000 0.000000 29.662445
2.958508 0.000000 29.662445
5.917015 0.000000 29.662445
8.875523 0.000000 29.662445
1.479254 2.562143 29.662445
4.437761 2.562143 29.662445
7.396269 2.562143 29.662445
10.354776 2.562143 29.662445
0.000000 5.124285 29.662445
2.958508 5.124285 29.662445
5.917015 5.124285 29.662445
8.875523 5.124285 29.662445
1.479254 7.686428 29.662445
4.437761 7.686428 29.662445
7.396269 7.686428 29.662445
10.354776 7.686428 29.662445
1.479254 0.854048 32.078056
4.437761 0.854048 32.078056
7.396269 0.854048 32.078056
10.354776 0.854048 32.078056
0.000000 3.416190 32.078056
2.958508 3.416190 32.078056
5.917015 3.416190 32.078056
8.875523 3.416190 32.078056
1.479254 5.978333 32.078056
4.437761 5.978333 32.078056
7.396269 5.978333 32.078056
10.354776 5.978333 32.078056
0.000000 8.540476 32.078056
2.958508 8.540476 32.078056
5.917015 8.540476 32.078056
8.875523 8.540476 32.078056
0.000000 1.708095 34.493668
2.958508 1.708095 34.493668
5.917015 1.708095 34.493668
8.875523 1.708095 34.493668
1.479254 4.270238 34.493668
4.437761 4.270238 34.493668
7.396269 4.270238 34.493668
10.354776 4.270238 34.493668
0.000000 6.832381 34.493668
2.958508 6.832381 34.493668
5.917015 6.832381 34.493668
8.875523 6.832381 34.493668
1.479254 9.394524 34.493668
4.437761 9.394524 34.493668
7.396269 9.394524 34.493668
10.354776 9.394524 34.493668
0.000000 0.000000 36.909279
2.958508 0.000000 36.909279
5.917015 0.000000 36.909279
8.875523 0.000000 36.909279
1.479254 2.562143 36.909279
4.437761 2.562143 36.909279
7.396269 2.562143 36.909279
10.354776 2.562143 36.909279
0.000000 5.124285 36.909279
2.958508 5.124285 36.909279
5.917015 5.124285 36.909279
8.875523 5.124285 36.909279
1.479254 7.686428 36.909279
4.437761 7.686428 36.909279
7.396269 7.686428 36.909279
10.354776 7.686428 36.909279
